
Gurobi 6.5.2 (win64) logging started 07/23/16 03:23:33


Gurobi 6.5.2 (win64) logging started 07/23/16 03:23:33

Optimize a model with 28465 rows, 1593 columns and 61276 nonzeros
Coefficient statistics:
  Matrix range    [4e-06, 1e+03]
  Objective range [1e+00, 1e+00]
  Bounds range    [1e+00, 1e+00]
  RHS range       [1e+00, 1e+03]
Found heuristic solution: objective 1212.63
Presolve removed 28439 rows and 1567 columns
Presolve time: 0.01s
Presolved: 26 rows, 26 columns, 79 nonzeros
Found heuristic solution: objective 243.3598054
Variable types: 26 continuous, 0 integer (0 binary)

Root relaxation: objective 2.163306e+02, 19 iterations, 0.00 seconds

    Nodes    |    Current Node    |     Objective Bounds      |     Work
 Expl Unexpl |  Obj  Depth IntInf | Incumbent    BestBd   Gap | It/Node Time

*    0     0               0     216.3306262  216.33063  0.00%     -    0s

Explored 0 nodes (19 simplex iterations) in 0.02 seconds
Thread count was 8 (of 8 available processors)

Optimal solution found (tolerance 1.00e-04)
Best objective 2.163306262053e+02, best bound 2.163306262053e+02, gap 0.0%

Wrote requested result file 'H2\instance24\\Results24EC_Sol6.lp'

